c FILE: I25.clq
c
c SOURCE: Generated by Breno Maurício de Freitas Viana
c         writed
c
c           Graph Stats
c number of vertices  : 35
c number of edges     : 76
p col 35 76
e 1 2
e 1 3
e 1 4
e 1 5
e 1 6
e 2 3
e 2 4
e 2 5
e 2 6
e 3 4
e 3 5
e 3 6
e 3 7
e 4 5
e 4 6
e 5 6
e 7 8
e 7 9
e 7 10
e 8 9
e 8 10
e 9 10
e 10 11
e 10 12
e 10 13
e 10 14
e 11 12
e 11 13
e 11 14
e 11 15
e 11 19
e 11 20
e 12 13
e 12 14
e 12 15
e 12 16
e 12 17
e 12 18
e 13 14
e 13 18
e 15 16
e 15 17
e 15 18
e 15 19
e 15 20
e 16 17
e 16 18
e 16 21
e 16 22
e 17 18
e 17 21
e 17 22
e 19 20
e 21 22
e 23 24
e 23 25
e 23 26
e 23 27
e 24 25
e 24 26
e 24 27
e 24 28
e 24 29
e 25 26
e 25 27
e 25 30
e 25 31
e 26 27
e 26 32
e 26 33
e 27 34
e 27 35
e 28 29
e 30 31
e 32 33
e 34 35